NAME: random101
TYPE: TSP
DIMENSION: 101
EDGE_WEIGHT_TYPE: EXPLICIT
EDGE_WEIGHT_FORMAT: FULL_MATRIX
EDGE_WEIGHT_SECTION
0 121 121 121 121 121 121 121 121 121 121 121 121 1 121 121 121 121 121 121 121 121 121 121 121 121 121 121 121 121 121 121 9 121 121 121 121 121 121 121 121 121 121 121 121 121 121 121 13 121 121 121 121 121 121 121 121 121 121 121 121 121 23 121 121 121 121 121 121 121 121 121 121 121 121 121 121 121 121 121 121 121 121 13 121 121 121 121 121 121 121 121 121 121 121 15 121 121 121 121 121
121 0 121 121 121 121 121 121 121 121 121 4 121 121 121 121 121 121 121 121 121 121 121 121 121 121 5 121 121 3 121 121 121 121 121 121 121 121 121 121 121 121 121 121 121 121 121 121 121 121 121 121 121 121 121 121 121 121 121 121 121 121 121 121 121 121 121 38 121 121 121 121 121 121 121 121 121 121 121 121 121 121 121 121 121 121 121 121 121 121 121 121 121 121 121 121 121 121 121 48 121
121 121 0 121 121 121 121 121 121 121 121 121 121 121 121 121 121 121 121 121 121 6 121 121 121 121 121 121 121 121 121 121 121 121 121 121 121 121 121 121 18 121 121 121 121 121 121 121 121 16 121 121 121 121 121 121 121 121 121 121 121 121 121 121 121 121 121 121 121 121 121 5 121 121 121 121 121 121 121 121 121 121 121 121 121 12 121 121 121 121 121 121 121 121 121 121 121 5 121 121 121
121 121 121 0 121 121 121 121 121 121 121 121 121 121 121 121 121 121 121 121 121 121 121 121 121 121 121 121 121 121 14 121 121 121 121 121 121 121 121 121 121 121 121 121 121 121 121 121 121 121 121 121 121 121 121 121 121 121 10 121 121 121 121 121 121 121 15 121 121 121 121 121 121 121 7 121 121 121 121 121 22 121 121 121 121 121 121 121 121 121 121 121 121 9 121 121 121 121 121 121 121
121 121 121 121 0 121 121 121 121 9 121 121 121 121 121 121 121 121 121 121 121 121 121 6 121 121 121 121 121 121 121 121 121 121 121 121 121 7 121 10 121 121 121 121 121 121 121 121 121 121 121 121 121 121 121 121 121 121 121 121 121 121 121 121 121 121 121 121 121 19 121 121 8 121 121 121 121 121 121 121 121 121 121 121 121 121 121 121 121 121 121 121 121 121 121 121 121 121 121 121 121
121 121 121 121 121 0 121 121 121 121 121 121 121 121 121 121 121 121 121 121 121 121 121 121 121 121 121 121 121 121 121 121 121 121 121 121 121 121 121 121 121 121 121 121 121 121 8 121 121 121 121 121 121 121 121 121 121 121 121 121 121 121 12 121 121 121 121 121 121 121 121 121 121 121 121 121 121 121 121 121 121 9 121 121 121 121 121 121 121 121 121 121 121 121 121 11 121 121 121 121 121
121 121 121 121 121 121 0 121 121 121 121 121 121 121 121 121 121 121 121 121 121 121 121 121 121 121 121 121 121 121 121 121 121 121 121 121 121 121 121 121 121 121 121 121 121 121 121 121 121 121 121 121 121 121 121 121 121 121 7 121 8 121 121 121 121 121 121 121 121 121 121 121 121 121 121 6 17 121 121 19 121 121 121 121 7 121 121 121 121 121 121 121 121 15 121 121 121 121 8 121 121
121 121 121 121 121 121 121 0 121 24 121 121 121 121 121 121 121 121 121 121 121 121 121 121 121 121 121 121 121 121 121 121 121 121 121 121 121 121 121 121 121 121 3 121 121 121 121 121 121 121 121 121 6 121 121 121 121 121 121 121 121 18 121 121 121 121 121 121 121 14 121 121 121 121 121 121 121 121 121 121 121 121 121 121 121 121 121 121 121 121 121 121 121 121 121 121 121 121 121 121 121
121 121 121 121 121 121 121 121 0 121 121 121 121 121 121 121 121 121 121 121 121 121 121 121 121 121 121 121 121 121 121 121 121 121 121 121 121 121 121 121 121 121 121 121 121 1 121 121 121 121 121 121 121 121 121 121 121 121 121 121 16 121 121 16 121 121 121 8 121 121 121 121 121 121 121 121 121 19 121 121 121 121 121 121 121 121 121 28 121 121 121 121 121 121 121 121 121 121 14 121 121
121 121 121 121 9 121 121 24 121 0 121 121 121 121 121 121 121 121 121 121 121 121 121 121 121 121 121 121 121 121 121 121 121 121 121 121 121 121 121 121 121 121 121 121 121 121 121 121 121 121 7 121 121 121 121 121 121 121 121 12 121 15 121 121 121 121 121 121 121 23 121 121 4 121 121 121 121 121 121 121 121 121 121 121 121 121 121 121 121 121 121 121 121 121 121 121 121 121 121 121 121
121 121 121 121 121 121 121 121 121 121 0 121 121 121 6 121 121 121 121 121 121 121 121 121 121 1 121 121 121 121 121 121 121 121 121 121 121 121 121 121 121 2 121 121 121 121 121 121 121 121 121 121 121 121 121 121 121 121 121 121 121 121 121 121 121 121 121 121 121 121 121 121 121 121 121 121 121 121 121 121 121 121 121 121 121 121 121 121 121 121 121 121 121 121 121 121 121 121 121 121 121
121 4 121 121 121 121 121 121 121 121 121 0 121 121 121 121 121 121 121 121 6 121 121 121 121 121 121 121 121 4 121 121 121 121 121 121 121 121 121 121 121 121 121 121 121 121 121 121 121 121 121 121 121 121 121 121 121 121 121 121 121 121 121 121 121 121 121 121 121 121 121 121 121 121 121 121 121 121 121 121 121 121 121 121 121 121 121 121 121 121 121 121 22 121 121 121 121 121 121 121 121
121 121 121 121 121 121 121 121 121 121 121 121 0 121 121 121 121 121 121 121 121 121 121 121 121 121 121 121 121 121 121 121 121 121 121 121 121 121 121 121 121 121 121 121 121 121 121 121 121 121 121 121 121 121 121 121 121 121 121 121 121 121 121 121 121 121 1 121 121 121 121 121 121 121 121 121 121 121 72 14 33 121 121 121 121 121 121 121 121 121 121 121 121 121 121 121 121 121 121 121 121
1 121 121 121 121 121 121 121 121 121 121 121 121 0 121 121 121 121 121 121 121 121 121 121 121 121 121 121 121 121 121 121 8 121 121 121 121 121 15 121 121 121 121 121 121 121 121 121 121 21 121 121 121 121 121 121 121 121 121 121 121 121 121 121 121 121 121 121 121 121 121 121 121 121 121 121 121 121 121 121 121 121 121 13 121 121 121 121 121 121 121 121 121 121 121 121 121 26 121 121 121
121 121 121 121 121 121 121 121 121 121 6 121 121 121 0 121 121 121 121 121 121 121 121 121 6 6 121 121 121 121 121 22 121 121 121 15 121 121 8 121 15 6 121 121 121 121 121 121 121 14 121 121 121 121 121 121 121 121 121 15 121 121 121 121 121 121 121 121 121 121 121 121 121 18 121 121 121 121 121 121 121 121 121 121 121 121 121 121 121 121 23 121 121 121 121 121 121 121 121 121 121
121 121 121 121 121 121 121 121 121 121 121 121 121 121 121 0 121 121 5 121 121 121 121 121 121 121 121 121 121 121 121 121 121 121 121 121 121 121 121 121 121 121 121 121 121 121 121 121 121 121 121 121 121 121 121 121 121 8 121 121 121 121 121 121 121 121 121 121 121 121 121 121 121 121 121 121 121 121 18 121 121 121 121 121 121 121 121 121 121 12 121 121 121 121 121 121 121 121 121 121 121
121 121 121 121 121 121 121 121 121 121 121 121 121 121 121 121 0 121 121 121 121 121 121 121 121 121 121 121 121 121 121 121 121 121 121 121 121 121 121 121 121 121 121 121 121 121 121 121 20 121 121 12 121 121 121 121 121 121 121 121 121 121 3 121 121 4 121 121 121 121 121 121 121 121 121 121 121 121 121 121 121 121 121 121 121 121 121 121 121 121 121 121 121 121 121 121 121 121 121 121 121
121 121 121 121 121 121 121 121 121 121 121 121 121 121 121 121 121 0 121 121 121 121 121 121 121 121 121 121 121 121 121 13 121 121 121 121 121 121 121 121 121 121 121 121 121 121 121 121 121 121 121 121 6 121 1 121 121 121 121 121 121 121 121 121 121 121 121 121 121 121 121 121 121 121 121 121 121 121 121 121 121 121 121 121 121 121 121 121 121 121 121 121 121 121 121 121 121 121 121 121 121
121 121 121 121 121 121 121 121 121 121 121 121 121 121 121 5 121 121 0 121 121 121 121 121 121 121 121 121 121 121 121 121 121 121 121 121 121 121 121 121 16 121 121 121 121 121 121 121 121 121 121 121 121 121 121 121 121 121 121 121 121 121 121 121 121 121 121 121 121 121 121 121 121 121 121 121 121 121 17 121 121 121 121 121 121 8 121 121 7 14 121 121 121 121 121 121 121 121 121 121 121
121 121 121 121 121 121 121 121 121 121 121 121 121 121 121 121 121 121 121 0 121 17 121 121 121 121 121 121 121 121 11 121 121 121 121 121 121 121 121 121 121 121 121 121 121 121 121 121 121 121 121 121 121 121 121 20 121 121 121 121 121 121 121 121 121 121 121 121 121 121 121 121 121 121 121 121 121 121 121 121 3 121 121 121 121 121 121 121 121 121 121 121 121 121 121 121 121 16 121 121 121
121 121 121 121 121 121 121 121 121 121 121 6 121 121 121 121 121 121 121 121 0 121 121 121 121 121 121 121 121 9 121 121 121 121 121 121 121 121 121 121 121 121 121 121 121 121 121 121 121 121 121 121 121 6 121 121 121 121 121 121 121 121 121 121 121 121 121 121 121 121 121 121 121 121 121 121 121 121 121 121 121 121 121 121 121 121 121 121 121 121 121 121 16 121 121 121 121 121 121 121 121
121 121 6 121 121 121 121 121 121 121 121 121 121 121 121 121 121 121 121 17 121 0 121 121 121 121 121 121 121 121 121 121 121 121 121 121 121 121 121 121 121 121 121 121 121 121 121 121 121 121 121 121 121 121 121 4 121 121 121 121 121 121 121 121 121 121 121 121 121 121 121 1 121 121 121 121 121 121 121 121 121 121 121 121 121 121 121 121 121 121 121 121 121 121 121 121 121 10 121 121 121
121 121 121 121 121 121 121 121 121 121 121 121 121 121 121 121 121 121 121 121 121 121 0 121 121 121 13 121 121 121 121 121 121 121 121 121 121 121 121 121 121 121 121 15 121 121 121 121 121 121 121 121 121 121 121 121 121 121 121 121 121 121 121 121 121 121 121 121 121 121 121 121 121 121 121 121 121 121 121 121 121 121 121 121 121 121 121 9 121 121 121 9 121 121 121 121 19 121 121 121 121
121 121 121 121 6 121 121 121 121 121 121 121 121 121 121 121 121 121 121 121 121 121 121 0 121 121 121 11 121 121 121 121 121 121 121 121 121 5 121 10 121 121 121 121 121 121 121 121 121 121 121 121 121 121 121 121 121 121 121 121 121 121 121 121 121 121 121 121 121 121 8 121 121 121 121 121 121 121 121 121 121 121 121 121 121 121 121 121 121 121 121 121 121 121 121 121 121 121 121 121 121
121 121 121 121 121 121 121 121 121 121 121 121 121 121 6 121 121 121 121 121 121 121 121 121 0 121 121 121 121 121 121 121 121 121 121 121 8 121 121 121 121 1 121 121 121 121 121 121 121 121 121 121 121 121 121 121 10 121 121 11 121 121 121 121 121 121 121 121 121 121 121 121 121 121 121 121 121 121 121 121 121 121 6 121 121 121 121 121 121 121 121 121 121 121 121 121 121 121 121 121 121
121 121 121 121 121 121 121 121 121 121 1 121 121 121 6 121 121 121 121 121 121 121 121 121 121 0 121 121 121 121 121 121 121 121 121 121 121 121 2 121 121 3 121 121 121 121 121 121 121 121 121 121 121 121 121 121 121 121 121 121 121 121 121 121 121 121 121 121 121 121 121 121 121 121 121 121 121 121 121 121 121 121 7 5 121 121 121 121 121 121 121 121 121 121 121 121 121 121 121 121 121
121 5 121 121 121 121 121 121 121 121 121 121 121 121 121 121 121 121 121 121 121 121 13 121 121 121 0 121 121 5 121 121 121 121 121 121 121 121 121 121 121 121 121 121 121 121 121 121 121 121 121 121 121 121 121 121 121 121 121 121 121 121 121 121 121 121 121 32 121 121 121 121 121 121 121 121 121 121 121 121 121 121 121 121 121 121 121 10 121 121 121 13 121 121 121 121 121 121 121 121 121
121 121 121 121 121 121 121 121 121 121 121 121 121 121 121 121 121 121 121 121 121 121 121 11 121 121 121 0 8 121 121 121 121 121 121 121 121 12 121 121 121 121 121 121 121 121 121 121 121 121 121 121 121 121 121 121 121 121 121 121 121 121 121 121 121 121 121 121 5 121 5 121 121 121 121 121 121 121 121 121 121 15 121 121 121 121 121 121 121 121 121 121 121 121 121 121 121 121 121 121 121
121 121 121 121 121 121 121 121 121 121 121 121 121 121 121 121 121 121 121 121 121 121 121 121 121 121 121 8 0 121 121 121 121 18 121 121 121 121 121 121 121 121 121 121 121 121 121 121 121 121 121 121 121 121 121 121 121 121 121 121 121 121 121 121 121 121 121 121 9 121 121 121 121 121 121 121 121 121 121 121 121 13 121 121 121 121 121 121 121 121 121 121 121 121 121 121 121 121 121 121 8
121 3 121 121 121 121 121 121 121 121 121 4 121 121 121 121 121 121 121 121 9 121 121 121 121 121 5 121 121 0 121 121 121 121 121 121 121 121 121 121 121 121 121 121 121 121 121 121 121 121 121 121 121 11 121 121 121 121 121 121 121 121 121 121 121 121 121 121 121 121 121 121 121 121 121 121 121 121 121 121 121 121 121 121 121 121 121 121 121 121 121 11 121 121 121 121 121 121 121 121 121
121 121 121 14 121 121 121 121 121 121 121 121 121 121 121 121 121 121 121 11 121 121 121 121 121 121 121 121 121 121 0 121 24 121 121 121 121 121 121 121 121 121 121 121 121 121 121 121 121 121 121 121 121 121 121 121 121 121 121 121 121 121 121 121 23 121 121 121 121 121 121 121 121 121 9 121 121 121 121 121 10 121 121 121 121 121 121 121 121 121 121 121 121 121 121 121 121 21 121 121 121
121 121 121 121 121 121 121 121 121 121 121 121 121 121 22 121 121 13 121 121 121 121 121 121 121 121 121 121 121 121 121 0 121 121 121 121 121 121 121 121 121 121 121 121 121 121 121 121 121 121 121 121 19 121 13 121 121 26 121 121 121 121 121 121 121 121 121 121 121 121 121 121 121 11 121 121 121 121 121 121 121 121 121 121 121 121 121 121 121 121 8 121 121 121 121 121 121 121 121 121 121
9 121 121 121 121 121 121 121 121 121 121 121 121 8 121 121 121 121 121 121 121 121 121 121 121 121 121 121 121 121 24 121 0 121 121 121 121 121 121 121 121 121 121 121 121 121 121 121 11 121 121 121 121 121 121 121 121 121 121 121 121 121 121 121 7 121 121 121 121 121 121 121 121 121 121 121 121 121 121 121 121 121 121 121 121 121 121 121 121 121 121 121 121 121 121 121 121 25 121 121 121
121 121 121 121 121 121 121 121 121 121 121 121 121 121 121 121 121 121 121 121 121 121 121 121 121 121 121 121 18 121 121 121 121 0 121 121 121 121 121 121 121 121 121 11 121 121 121 121 121 121 121 15 121 18 121 121 121 121 121 121 121 121 121 121 121 121 121 121 24 121 121 121 121 121 121 121 121 121 121 121 121 121 121 121 121 121 121 121 121 121 121 18 15 121 121 121 121 121 121 121 15
121 121 121 121 121 121 121 121 121 121 121 121 121 121 121 121 121 121 121 121 121 121 121 121 121 121 121 121 121 121 121 121 121 121 0 121 121 121 121 121 121 121 121 121 121 4 121 121 121 121 121 121 121 121 121 121 121 121 121 121 121 121 121 121 121 121 121 9 121 121 121 121 121 121 121 121 121 121 121 121 121 121 121 121 121 121 121 121 121 121 121 121 121 121 121 121 121 121 12 5 121
121 121 121 121 121 121 121 121 121 121 121 121 121 121 15 121 121 121 121 121 121 121 121 121 121 121 121 121 121 121 121 121 121 121 121 0 121 121 121 121 3 121 121 121 121 121 121 121 121 121 121 121 121 121 121 121 121 121 121 121 121 121 121 121 121 121 121 121 121 121 121 121 121 13 121 121 121 121 121 121 121 121 121 121 121 121 121 121 121 8 121 121 121 121 121 121 121 121 121 121 121
121 121 121 121 121 121 121 121 121 121 121 121 121 121 121 121 121 121 121 121 121 121 121 121 8 121 121 121 121 121 121 121 121 121 121 121 0 121 121 121 121 121 121 121 121 121 5 121 121 121 121 121 121 121 121 121 6 121 121 121 121 121 121 121 121 121 121 121 121 121 121 121 121 121 121 121 121 121 121 121 121 121 4 121 121 121 121 121 121 121 121 121 121 121 121 6 121 121 121 121 121
121 121 121 121 7 121 121 121 121 121 121 121 121 121 121 121 121 121 121 121 121 121 121 5 121 121 121 12 121 121 121 121 121 121 121 121 121 0 121 121 121 121 121 121 121 121 121 121 121 121 121 121 121 121 121 121 121 121 121 121 121 121 121 121 121 121 121 121 121 121 121 121 7 121 121 121 121 121 121 121 121 12 121 121 121 121 121 121 121 121 121 121 121 121 121 121 121 121 121 121 121
121 121 121 121 121 121 121 121 121 121 121 121 121 15 8 121 121 121 121 121 121 121 121 121 121 2 121 121 121 121 121 121 121 121 121 121 121 121 0 121 121 121 121 121 121 121 121 121 121 15 121 121 121 121 121 121 121 121 121 121 121 121 121 121 121 121 121 121 121 121 121 121 121 121 121 121 121 121 121 121 121 121 121 3 121 121 121 121 121 121 121 121 121 121 121 121 121 121 121 121 121
121 121 121 121 10 121 121 121 121 121 121 121 121 121 121 121 121 121 121 121 121 121 121 10 121 121 121 121 121 121 121 121 121 121 121 121 121 121 121 0 121 121 121 121 121 121 121 121 121 121 121 121 121 121 121 121 121 121 121 121 121 121 121 121 121 121 121 121 19 14 12 121 121 121 121 121 121 121 121 121 121 121 121 121 121 121 121 121 121 121 121 121 53 121 121 121 121 121 121 121 121
121 121 18 121 121 121 121 121 121 121 121 121 121 121 15 121 121 121 16 121 121 121 121 121 121 121 121 121 121 121 121 121 121 121 121 3 121 121 121 121 0 121 121 121 121 121 121 121 121 7 121 121 121 121 121 121 121 121 121 121 121 121 121 121 121 121 121 121 121 121 121 121 121 121 121 121 121 121 121 121 121 121 121 121 121 19 121 121 121 11 121 121 121 121 121 121 121 121 121 121 121
121 121 121 121 121 121 121 121 121 121 2 121 121 121 6 121 121 121 121 121 121 121 121 121 1 3 121 121 121 121 121 121 121 121 121 121 121 121 121 121 121 0 121 121 121 121 121 121 121 121 121 121 121 121 121 121 121 121 121 121 121 121 121 121 121 121 121 121 121 121 121 121 121 121 121 121 121 121 121 121 121 121 6 121 121 121 121 121 121 121 121 121 121 121 121 121 121 121 121 121 121
121 121 121 121 121 121 121 3 121 121 121 121 121 121 121 121 121 121 121 121 121 121 121 121 121 121 121 121 121 121 121 121 121 121 121 121 121 121 121 121 121 121 0 121 121 121 121 121 121 121 121 121 9 121 121 121 121 53 121 121 121 121 121 121 121 121 121 121 121 12 121 121 121 121 121 121 121 121 121 121 121 121 121 121 121 121 121 121 121 121 121 121 121 121 121 121 121 121 121 121 121
121 121 121 121 121 121 121 121 121 121 121 121 121 121 121 121 121 121 121 121 121 121 15 121 121 121 121 121 121 121 121 121 121 11 121 121 121 121 121 121 121 121 121 0 121 121 121 121 121 121 121 11 121 121 121 121 121 121 121 121 121 121 121 121 121 14 121 121 121 121 121 121 121 121 121 121 121 121 121 121 121 121 121 121 121 121 121 121 121 121 121 14 121 121 121 121 15 121 121 121 121
121 121 121 121 121 121 121 121 121 121 121 121 121 121 121 121 121 121 121 121 121 121 121 121 121 121 121 121 121 121 121 121 121 121 121 121 121 121 121 121 121 121 121 121 0 121 121 7 121 121 121 121 121 121 121 121 121 121 121 121 121 121 121 121 121 121 121 121 121 121 121 121 121 121 121 121 2 121 121 3 121 121 121 121 121 121 121 121 121 121 121 121 121 121 121 121 121 121 121 121 121
121 121 121 121 121 121 121 121 1 121 121 121 121 121 121 121 121 121 121 121 121 121 121 121 121 121 121 121 121 121 121 121 121 121 4 121 121 121 121 121 121 121 121 121 121 0 121 121 121 121 121 121 121 121 121 121 121 121 121 121 121 121 121 121 121 121 121 8 121 121 121 121 121 121 121 121 121 121 121 121 121 121 121 121 121 121 121 121 121 121 121 121 121 121 121 121 121 121 13 121 121
121 121 121 121 121 8 121 121 121 121 121 121 121 121 121 121 121 121 121 121 121 121 121 121 121 121 121 121 121 121 121 121 121 121 121 121 5 121 121 121 121 121 121 121 121 121 0 121 121 121 7 121 121 121 121 121 7 121 121 121 121 121 121 121 121 121 121 121 121 121 121 121 13 121 121 121 121 121 121 121 121 14 121 121 121 121 121 121 121 121 121 121 121 121 121 8 121 121 121 121 121
121 121 121 121 121 121 121 121 121 121 121 121 121 121 121 121 121 121 121 121 121 121 121 121 121 121 121 121 121 121 121 121 121 121 121 121 121 121 121 121 121 121 121 121 7 121 121 0 121 121 121 121 121 121 121 121 121 121 121 121 121 121 121 121 121 121 121 121 121 121 121 121 121 121 121 121 5 121 121 121 121 121 121 121 121 121 121 121 121 121 121 121 121 121 121 121 121 121 16 19 121
13 121 121 121 121 121 121 121 121 121 121 121 121 121 121 121 20 121 121 121 121 121 121 121 121 121 121 121 121 121 121 121 11 121 121 121 121 121 121 121 121 121 121 121 121 121 121 121 0 121 121 121 121 121 121 121 121 121 121 121 121 121 20 121 11 20 121 121 121 121 121 121 121 121 121 121 121 11 121 121 121 121 121 121 121 121 10 121 121 121 121 121 121 121 121 121 19 121 121 121 121
121 121 16 121 121 121 121 121 121 121 121 121 121 21 14 121 121 121 121 121 121 121 121 121 121 121 121 121 121 121 121 121 121 121 121 121 121 121 15 121 7 121 121 121 121 121 121 121 121 0 121 121 121 121 121 121 121 121 121 121 121 121 121 121 121 121 121 121 121 121 121 121 121 121 121 121 121 121 121 121 121 121 121 121 121 121 121 121 121 121 121 121 121 121 121 121 121 15 121 121 121
121 121 121 121 121 121 121 121 121 7 121 121 121 121 121 121 121 121 121 121 121 121 121 121 121 121 121 121 121 121 121 121 121 121 121 121 121 121 121 121 121 121 121 121 121 121 7 121 121 121 0 121 121 121 121 121 5 121 121 8 121 121 121 121 121 121 121 121 121 121 121 121 8 121 121 121 121 121 121 121 121 121 121 121 121 121 121 121 121 121 121 121 121 121 121 121 121 121 121 121 121
121 121 121 121 121 121 121 121 121 121 121 121 121 121 121 121 12 121 121 121 121 121 121 121 121 121 121 121 121 121 121 121 121 15 121 121 121 121 121 121 121 121 121 11 121 121 121 121 121 121 121 0 121 121 121 121 121 121 121 121 121 121 12 121 121 13 121 121 121 121 121 121 121 121 121 121 121 121 121 121 121 14 121 121 121 121 121 121 121 121 121 121 121 121 121 121 121 121 121 121 6
121 121 121 121 121 121 121 6 121 121 121 121 121 121 121 121 121 6 121 121 121 121 121 121 121 121 121 121 121 121 121 19 121 121 121 121 121 121 121 121 121 121 9 121 121 121 121 121 121 121 121 121 0 121 7 121 121 45 121 121 121 15 121 121 121 121 121 121 121 121 121 121 121 121 121 121 121 121 121 121 121 121 121 121 121 121 121 121 121 121 121 121 121 121 121 121 121 121 121 121 121
121 121 121 121 121 121 121 121 121 121 121 121 121 121 121 121 121 121 121 121 6 121 121 121 121 121 121 121 121 11 121 121 121 18 121 121 121 121 121 121 121 121 121 121 121 121 121 121 121 121 121 121 121 0 121 121 121 121 121 121 121 121 121 121 121 121 121 121 121 121 121 121 121 121 121 121 121 121 121 121 121 121 121 121 121 121 121 121 121 121 121 6 15 121 121 121 121 121 121 121 121
121 121 121 121 121 121 121 121 121 121 121 121 121 121 121 121 121 1 121 121 121 121 121 121 121 121 121 121 121 121 121 13 121 121 121 121 121 121 121 121 121 121 121 121 121 121 121 121 121 121 121 121 7 121 0 121 121 121 121 121 121 10 121 121 121 121 121 121 121 121 121 121 121 121 121 121 121 121 121 121 121 121 121 121 121 121 121 121 121 121 6 121 121 121 121 121 121 121 121 121 121
121 121 121 121 121 121 121 121 121 121 121 121 121 121 121 121 121 121 121 20 121 4 121 121 121 121 121 121 121 121 121 121 121 121 121 121 121 121 121 121 121 121 121 121 121 121 121 121 121 121 121 121 121 121 121 0 121 121 121 121 121 121 121 121 121 121 121 121 121 121 121 4 121 121 121 121 121 121 121 121 22 121 121 121 121 8 121 121 121 121 121 121 121 121 1 121 121 121 121 121 121
121 121 121 121 121 121 121 121 121 121 121 121 121 121 121 121 121 121 121 121 121 121 121 121 10 121 121 121 121 121 121 121 121 121 121 121 6 121 121 121 121 121 121 121 121 121 7 121 121 121 5 121 121 121 121 121 0 121 121 6 121 121 121 121 121 121 121 121 121 121 121 121 121 121 121 121 121 121 121 121 121 121 121 121 121 121 121 121 121 121 121 121 121 121 121 121 121 121 121 121 121
121 121 121 121 121 121 121 121 121 121 121 121 121 121 121 8 121 121 121 121 121 121 121 121 121 121 121 121 121 121 121 26 121 121 121 121 121 121 121 121 121 121 53 121 121 121 121 121 121 121 121 121 45 121 121 121 121 0 121 121 121 121 121 121 121 121 121 121 121 121 121 121 121 16 121 121 121 121 26 121 121 121 121 121 121 121 121 121 121 7 121 121 121 121 121 121 121 121 121 121 121
121 121 121 10 121 121 7 121 121 121 121 121 121 121 121 121 121 121 121 121 121 121 121 121 121 121 121 121 121 121 121 121 121 121 121 121 121 121 121 121 121 121 121 121 121 121 121 121 121 121 121 121 121 121 121 121 121 121 0 121 121 121 121 121 121 121 121 121 121 121 121 121 121 121 12 4 121 121 121 121 121 121 121 121 121 121 121 121 121 121 121 121 121 11 121 121 121 121 121 121 121
121 121 121 121 121 121 121 121 121 12 121 121 121 121 15 121 121 121 121 121 121 121 121 121 11 121 121 121 121 121 121 121 121 121 121 121 121 121 121 121 121 121 121 121 121 121 121 121 121 121 8 121 121 121 121 121 6 121 121 0 121 9 121 121 121 121 121 121 121 121 121 121 121 121 121 121 121 121 121 121 121 121 121 121 121 121 121 121 121 121 16 121 121 121 121 121 121 121 121 121 121
121 121 121 121 121 121 8 121 16 121 121 121 121 121 121 121 121 121 121 121 121 121 121 121 121 121 121 121 121 121 121 121 121 121 121 121 121 121 121 121 121 121 121 121 121 121 121 121 121 121 121 121 121 121 121 121 121 121 121 121 0 121 121 7 121 121 121 121 121 121 121 121 121 121 121 121 121 121 121 121 121 121 121 121 3 121 121 121 121 121 121 121 121 121 121 121 121 121 7 121 121
121 121 121 121 121 121 121 18 121 15 121 121 121 121 121 121 121 121 121 121 121 121 121 121 121 121 121 121 121 121 121 121 121 121 121 121 121 121 121 121 121 121 121 121 121 121 121 121 121 121 121 121 15 121 10 121 121 121 121 9 121 0 121 121 121 121 121 121 121 121 121 121 121 121 121 121 121 121 121 121 121 121 121 121 121 121 121 121 121 121 8 121 121 121 121 121 121 121 121 121 121
23 121 121 121 121 12 121 121 121 121 121 121 121 121 121 121 3 121 121 121 121 121 121 121 121 121 121 121 121 121 121 121 121 121 121 121 121 121 121 121 121 121 121 121 121 121 121 121 20 121 121 12 121 121 121 121 121 121 121 121 121 121 0 121 121 121 121 121 121 121 121 121 121 121 121 121 121 121 121 121 121 14 121 121 121 121 121 121 121 121 121 121 121 121 121 19 121 121 121 121 121
121 121 121 121 121 121 121 121 16 121 121 121 121 121 121 121 121 121 121 121 121 121 121 121 121 121 121 121 121 121 121 121 121 121 121 121 121 121 121 121 121 121 121 121 121 121 121 121 121 121 121 121 121 121 121 121 121 121 121 121 7 121 121 0 15 121 121 121 121 121 121 121 121 121 121 121 121 8 121 121 121 121 121 121 8 121 8 121 121 121 121 121 121 121 121 121 121 121 121 121 121
121 121 121 121 121 121 121 121 121 121 121 121 121 121 121 121 121 121 121 121 121 121 121 121 121 121 121 121 121 121 23 121 7 121 121 121 121 121 121 121 121 121 121 121 121 121 121 121 11 121 121 121 121 121 121 121 121 121 121 121 121 121 121 15 0 121 121 121 121 121 121 121 121 121 20 19 121 121 121 121 121 121 121 121 18 121 10 121 121 121 121 121 121 121 121 121 121 121 121 121 121
121 121 121 121 121 121 121 121 121 121 121 121 121 121 121 121 4 121 121 121 121 121 121 121 121 121 121 121 121 121 121 121 121 121 121 121 121 121 121 121 121 121 121 14 121 121 121 121 20 121 121 13 121 121 121 121 121 121 121 121 121 121 121 121 121 0 121 121 121 121 121 121 121 121 121 121 121 121 121 121 121 121 121 121 121 121 121 121 121 121 121 121 121 121 121 121 5 121 121 121 121
121 121 121 15 121 121 121 121 121 121 121 121 1 121 121 121 121 121 121 121 121 121 121 121 121 121 121 121 121 121 121 121 121 121 121 121 121 121 121 121 121 121 121 121 121 121 121 121 121 121 121 121 121 121 121 121 121 121 121 121 121 121 121 121 121 121 0 121 121 121 121 121 121 121 121 121 121 121 121 15 32 121 121 121 121 121 121 121 121 121 121 121 121 6 121 121 121 121 121 121 121
121 38 121 121 121 121 121 121 8 121 121 121 121 121 121 121 121 121 121 121 121 121 121 121 121 121 32 121 121 121 121 121 121 121 9 121 121 121 121 121 121 121 121 121 121 8 121 121 121 121 121 121 121 121 121 121 121 121 121 121 121 121 121 121 121 121 121 0 121 121 121 121 121 121 121 121 121 121 121 121 121 121 121 121 121 121 121 24 121 121 121 121 121 121 121 121 121 121 121 10 121
121 121 121 121 121 121 121 121 121 121 121 121 121 121 121 121 121 121 121 121 121 121 121 121 121 121 121 5 9 121 121 121 121 24 121 121 121 121 121 19 121 121 121 121 121 121 121 121 121 121 121 121 121 121 121 121 121 121 121 121 121 121 121 121 121 121 121 121 0 121 7 121 121 121 121 121 121 121 121 121 121 121 121 121 121 121 121 121 121 121 121 121 35 121 121 121 121 121 121 121 121
121 121 121 121 19 121 121 14 121 23 121 121 121 121 121 121 121 121 121 121 121 121 121 121 121 121 121 121 121 121 121 121 121 121 121 121 121 121 121 14 121 121 12 121 121 121 121 121 121 121 121 121 121 121 121 121 121 121 121 121 121 121 121 121 121 121 121 121 121 0 121 121 121 121 121 121 121 121 121 121 121 121 121 121 121 121 121 121 121 121 121 121 68 121 121 121 121 121 121 121 121
121 121 121 121 121 121 121 121 121 121 121 121 121 121 121 121 121 121 121 121 121 121 121 8 121 121 121 5 121 121 121 121 121 121 121 121 121 121 121 12 121 121 121 121 121 121 121 121 121 121 121 121 121 121 121 121 121 121 121 121 121 121 121 121 121 121 121 121 7 121 0 121 121 121 121 121 121 121 121 121 121 121 121 121 121 121 121 121 121 121 121 121 121 121 121 121 121 121 121 121 121
121 121 5 121 121 121 121 121 121 121 121 121 121 121 121 121 121 121 121 121 121 1 121 121 121 121 121 121 121 121 121 121 121 121 121 121 121 121 121 121 121 121 121 121 121 121 121 121 121 121 121 121 121 121 121 4 121 121 121 121 121 121 121 121 121 121 121 121 121 121 121 0 121 121 121 121 121 121 121 121 121 121 121 121 121 9 121 121 121 121 121 121 121 121 121 121 121 121 121 121 121
121 121 121 121 8 121 121 121 121 4 121 121 121 121 121 121 121 121 121 121 121 121 121 121 121 121 121 121 121 121 121 121 121 121 121 121 121 7 121 121 121 121 121 121 121 121 13 121 121 121 8 121 121 121 121 121 121 121 121 121 121 121 121 121 121 121 121 121 121 121 121 121 0 121 121 121 121 121 121 121 121 15 121 121 121 121 121 121 121 121 121 121 121 121 121 121 121 121 121 121 121
121 121 121 121 121 121 121 121 121 121 121 121 121 121 18 121 121 121 121 121 121 121 121 121 121 121 121 121 121 121 121 11 121 121 121 13 121 121 121 121 121 121 121 121 121 121 121 121 121 121 121 121 121 121 121 121 121 16 121 121 121 121 121 121 121 121 121 121 121 121 121 121 121 0 121 121 121 121 121 121 121 121 121 121 121 121 121 121 121 11 121 121 121 121 121 121 121 121 121 121 121
121 121 121 7 121 121 121 121 121 121 121 121 121 121 121 121 121 121 121 121 121 121 121 121 121 121 121 121 121 121 9 121 121 121 121 121 121 121 121 121 121 121 121 121 121 121 121 121 121 121 121 121 121 121 121 121 121 121 12 121 121 121 121 121 20 121 121 121 121 121 121 121 121 121 0 13 121 121 121 121 121 121 121 121 121 121 121 121 121 121 121 121 121 121 121 121 121 121 121 121 121
121 121 121 121 121 121 6 121 121 121 121 121 121 121 121 121 121 121 121 121 121 121 121 121 121 121 121 121 121 121 121 121 121 121 121 121 121 121 121 121 121 121 121 121 121 121 121 121 121 121 121 121 121 121 121 121 121 121 4 121 121 121 121 121 19 121 121 121 121 121 121 121 121 121 13 0 121 121 121 121 121 121 121 121 5 121 121 121 121 121 121 121 121 121 121 121 121 121 121 121 121
121 121 121 121 121 121 17 121 121 121 121 121 121 121 121 121 121 121 121 121 121 121 121 121 121 121 121 121 121 121 121 121 121 121 121 121 121 121 121 121 121 121 121 121 2 121 121 5 121 121 121 121 121 121 121 121 121 121 121 121 121 121 121 121 121 121 121 121 121 121 121 121 121 121 121 121 0 121 121 5 121 121 121 121 121 121 121 121 121 121 121 121 121 121 121 121 121 121 18 121 121
121 121 121 121 121 121 121 121 19 121 121 121 121 121 121 121 121 121 121 121 121 121 121 121 121 121 121 121 121 121 121 121 121 121 121 121 121 121 121 121 121 121 121 121 121 121 121 121 11 121 121 121 121 121 121 121 121 121 121 121 121 121 121 8 121 121 121 121 121 121 121 121 121 121 121 121 121 0 121 121 121 121 121 121 121 121 4 32 121 121 121 121 121 121 121 121 20 121 121 121 121
121 121 121 121 121 121 121 121 121 121 121 121 72 121 121 18 121 121 17 121 121 121 121 121 121 121 121 121 121 121 121 121 121 121 121 121 121 121 121 121 121 121 121 121 121 121 121 121 121 121 121 121 121 121 121 121 121 26 121 121 121 121 121 121 121 121 121 121 121 121 121 121 121 121 121 121 121 121 0 121 40 121 121 121 121 16 121 121 15 121 121 121 121 121 19 121 121 121 121 121 121
121 121 121 121 121 121 19 121 121 121 121 121 14 121 121 121 121 121 121 121 121 121 121 121 121 121 121 121 121 121 121 121 121 121 121 121 121 121 121 121 121 121 121 121 3 121 121 121 121 121 121 121 121 121 121 121 121 121 121 121 121 121 121 121 121 121 15 121 121 121 121 121 121 121 121 121 5 121 121 0 121 121 121 121 121 121 121 121 121 121 121 121 121 16 121 121 121 121 121 121 121
121 121 121 22 121 121 121 121 121 121 121 121 33 121 121 121 121 121 121 3 121 121 121 121 121 121 121 121 121 121 10 121 121 121 121 121 121 121 121 121 121 121 121 121 121 121 121 121 121 121 121 121 121 121 121 22 121 121 121 121 121 121 121 121 121 121 32 121 121 121 121 121 121 121 121 121 121 121 40 121 0 121 121 121 121 121 121 121 121 121 121 121 121 121 22 121 121 121 121 121 121
121 121 121 121 121 9 121 121 121 121 121 121 121 121 121 121 121 121 121 121 121 121 121 121 121 121 121 15 13 121 121 121 121 121 121 121 121 12 121 121 121 121 121 121 121 121 14 121 121 121 121 14 121 121 121 121 121 121 121 121 121 121 14 121 121 121 121 121 121 121 121 121 15 121 121 121 121 121 121 121 121 0 121 121 121 121 121 121 121 121 121 121 121 121 121 121 121 121 121 121 11
121 121 121 121 121 121 121 121 121 121 121 121 121 121 121 121 121 121 121 121 121 121 121 121 6 7 121 121 121 121 121 121 121 121 121 121 4 121 121 121 121 6 121 121 121 121 121 121 121 121 121 121 121 121 121 121 121 121 121 121 121 121 121 121 121 121 121 121 121 121 121 121 121 121 121 121 121 121 121 121 121 121 0 5 121 121 121 121 121 121 121 121 121 121 121 4 121 121 121 121 121
13 121 121 121 121 121 121 121 121 121 121 121 121 13 121 121 121 121 121 121 121 121 121 121 121 5 121 121 121 121 121 121 121 121 121 121 121 121 3 121 121 121 121 121 121 121 121 121 121 121 121 121 121 121 121 121 121 121 121 121 121 121 121 121 121 121 121 121 121 121 121 121 121 121 121 121 121 121 121 121 121 121 5 0 121 121 121 121 121 121 121 121 121 121 121 6 121 121 121 121 121
121 121 121 121 121 121 7 121 121 121 121 121 121 121 121 121 121 121 121 121 121 121 121 121 121 121 121 121 121 121 121 121 121 121 121 121 121 121 121 121 121 121 121 121 121 121 121 121 121 121 121 121 121 121 121 121 121 121 121 121 3 121 121 8 18 121 121 121 121 121 121 121 121 121 121 5 121 121 121 121 121 121 121 121 0 121 121 121 121 121 121 121 121 121 121 121 121 121 121 121 121
121 121 12 121 121 121 121 121 121 121 121 121 121 121 121 121 121 121 8 121 121 121 121 121 121 121 121 121 121 121 121 121 121 121 121 121 121 121 121 121 19 121 121 121 121 121 121 121 121 121 121 121 121 121 121 8 121 121 121 121 121 121 121 121 121 121 121 121 121 121 121 9 121 121 121 121 121 121 16 121 121 121 121 121 121 0 121 121 2 121 121 121 121 121 7 121 121 121 121 121 121
121 121 121 121 121 121 121 121 121 121 121 121 121 121 121 121 121 121 121 121 121 121 121 121 121 121 121 121 121 121 121 121 121 121 121 121 121 121 121 121 121 121 121 121 121 121 121 121 10 121 121 121 121 121 121 121 121 121 121 121 121 121 121 8 10 121 121 121 121 121 121 121 121 121 121 121 121 4 121 121 121 121 121 121 121 121 0 121 121 121 121 121 121 121 121 121 121 121 121 121 121
121 121 121 121 121 121 121 121 28 121 121 121 121 121 121 121 121 121 121 121 121 121 9 121 121 121 10 121 121 121 121 121 121 121 121 121 121 121 121 121 121 121 121 121 121 121 121 121 121 121 121 121 121 121 121 121 121 121 121 121 121 121 121 121 121 121 121 24 121 121 121 121 121 121 121 121 121 32 121 121 121 121 121 121 121 121 121 0 121 121 121 121 121 121 121 121 24 121 121 121 121
121 121 121 121 121 121 121 121 121 121 121 121 121 121 121 121 121 121 7 121 121 121 121 121 121 121 121 121 121 121 121 121 121 121 121 121 121 121 121 121 121 121 121 121 121 121 121 121 121 121 121 121 121 121 121 121 121 121 121 121 121 121 121 121 121 121 121 121 121 121 121 121 121 121 121 121 121 121 15 121 121 121 121 121 121 2 121 121 0 121 121 121 121 121 121 121 121 121 121 121 121
121 121 121 121 121 121 121 121 121 121 121 121 121 121 121 12 121 121 14 121 121 121 121 121 121 121 121 121 121 121 121 121 121 121 121 8 121 121 121 121 11 121 121 121 121 121 121 121 121 121 121 121 121 121 121 121 121 7 121 121 121 121 121 121 121 121 121 121 121 121 121 121 121 11 121 121 121 121 121 121 121 121 121 121 121 121 121 121 121 0 121 121 121 121 121 121 121 121 121 121 121
121 121 121 121 121 121 121 121 121 121 121 121 121 121 23 121 121 121 121 121 121 121 121 121 121 121 121 121 121 121 121 8 121 121 121 121 121 121 121 121 121 121 121 121 121 121 121 121 121 121 121 121 121 121 6 121 121 121 121 16 121 8 121 121 121 121 121 121 121 121 121 121 121 121 121 121 121 121 121 121 121 121 121 121 121 121 121 121 121 121 0 121 121 121 121 121 121 121 121 121 121
121 121 121 121 121 121 121 121 121 121 121 121 121 121 121 121 121 121 121 121 121 121 9 121 121 121 13 121 121 11 121 121 121 18 121 121 121 121 121 121 121 121 121 14 121 121 121 121 121 121 121 121 121 6 121 121 121 121 121 121 121 121 121 121 121 121 121 121 121 121 121 121 121 121 121 121 121 121 121 121 121 121 121 121 121 121 121 121 121 121 121 0 121 121 121 121 121 121 121 121 121
121 121 121 121 121 121 121 121 121 121 121 22 121 121 121 121 121 121 121 121 16 121 121 121 121 121 121 121 121 121 121 121 121 15 121 121 121 121 121 53 121 121 121 121 121 121 121 121 121 121 121 121 121 15 121 121 121 121 121 121 121 121 121 121 121 121 121 121 35 68 121 121 121 121 121 121 121 121 121 121 121 121 121 121 121 121 121 121 121 121 121 121 0 121 121 121 121 121 121 121 121
121 121 121 9 121 121 15 121 121 121 121 121 121 121 121 121 121 121 121 121 121 121 121 121 121 121 121 121 121 121 121 121 121 121 121 121 121 121 121 121 121 121 121 121 121 121 121 121 121 121 121 121 121 121 121 121 121 121 11 121 121 121 121 121 121 121 6 121 121 121 121 121 121 121 121 121 121 121 121 16 121 121 121 121 121 121 121 121 121 121 121 121 121 0 121 121 121 121 121 121 121
121 121 121 121 121 121 121 121 121 121 121 121 121 121 121 121 121 121 121 121 121 121 121 121 121 121 121 121 121 121 121 121 121 121 121 121 121 121 121 121 121 121 121 121 121 121 121 121 121 121 121 121 121 121 121 1 121 121 121 121 121 121 121 121 121 121 121 121 121 121 121 121 121 121 121 121 121 121 19 121 22 121 121 121 121 7 121 121 121 121 121 121 121 121 0 121 121 121 121 121 121
15 121 121 121 121 11 121 121 121 121 121 121 121 121 121 121 121 121 121 121 121 121 121 121 121 121 121 121 121 121 121 121 121 121 121 121 6 121 121 121 121 121 121 121 121 121 8 121 121 121 121 121 121 121 121 121 121 121 121 121 121 121 19 121 121 121 121 121 121 121 121 121 121 121 121 121 121 121 121 121 121 121 4 6 121 121 121 121 121 121 121 121 121 121 121 0 121 121 121 121 121
121 121 121 121 121 121 121 121 121 121 121 121 121 121 121 121 121 121 121 121 121 121 19 121 121 121 121 121 121 121 121 121 121 121 121 121 121 121 121 121 121 121 121 15 121 121 121 121 19 121 121 121 121 121 121 121 121 121 121 121 121 121 121 121 121 5 121 121 121 121 121 121 121 121 121 121 121 20 121 121 121 121 121 121 121 121 121 24 121 121 121 121 121 121 121 121 0 121 121 121 121
121 121 5 121 121 121 121 121 121 121 121 121 121 26 121 121 121 121 121 16 121 10 121 121 121 121 121 121 121 121 21 121 25 121 121 121 121 121 121 121 121 121 121 121 121 121 121 121 121 15 121 121 121 121 121 121 121 121 121 121 121 121 121 121 121 121 121 121 121 121 121 121 121 121 121 121 121 121 121 121 121 121 121 121 121 121 121 121 121 121 121 121 121 121 121 121 121 0 121 121 121
121 121 121 121 121 121 8 121 14 121 121 121 121 121 121 121 121 121 121 121 121 121 121 121 121 121 121 121 121 121 121 121 121 121 12 121 121 121 121 121 121 121 121 121 121 13 121 16 121 121 121 121 121 121 121 121 121 121 121 121 7 121 121 121 121 121 121 121 121 121 121 121 121 121 121 121 18 121 121 121 121 121 121 121 121 121 121 121 121 121 121 121 121 121 121 121 121 121 0 15 121
121 48 121 121 121 121 121 121 121 121 121 121 121 121 121 121 121 121 121 121 121 121 121 121 121 121 121 121 121 121 121 121 121 121 5 121 121 121 121 121 121 121 121 121 121 121 121 19 121 121 121 121 121 121 121 121 121 121 121 121 121 121 121 121 121 121 121 10 121 121 121 121 121 121 121 121 121 121 121 121 121 121 121 121 121 121 121 121 121 121 121 121 121 121 121 121 121 121 15 0 121
121 121 121 121 121 121 121 121 121 121 121 121 121 121 121 121 121 121 121 121 121 121 121 121 121 121 121 121 8 121 121 121 121 15 121 121 121 121 121 121 121 121 121 121 121 121 121 121 121 121 121 6 121 121 121 121 121 121 121 121 121 121 121 121 121 121 121 121 121 121 121 121 121 121 121 121 121 121 121 121 121 11 121 121 121 121 121 121 121 121 121 121 121 121 121 121 121 121 121 121 0
EOF
